NAME: X167-FSMF
COMMENT: Generated by Uchoa, Pecin, Pessoa, Poggi, Subramanian, and Vidal (2013). Modified by Sadykov, Pessoa and Uchoa (2017). Converted to PyVRP's VRPLIB dialect.
TYPE: HFVRP
DIMENSION: 167
VEHICLES: 830
EDGE_WEIGHT_TYPE: EUC_2D
NODE_COORD_SECTION
1	0	0
2	832	885
3	777	632
4	406	257
5	620	467
6	58	70
7	116	423
8	104	445
9	714	722
10	188	503
11	856	594
12	932	448
13	749	982
14	818	889
15	377	493
16	337	419
17	772	605
18	373	448
19	519	112
20	849	274
21	533	839
22	610	417
23	69	583
24	573	195
25	988	324
26	110	550
27	271	676
28	694	130
29	791	590
30	785	614
31	321	305
32	974	292
33	804	556
34	372	893
35	867	23
36	252	660
37	588	34
38	939	685
39	511	524
40	948	479
41	912	227
42	380	807
43	309	141
44	558	759
45	241	225
46	920	87
47	269	351
48	156	776
49	251	512
50	608	874
51	853	269
52	897	572
53	316	461
54	825	529
55	474	152
56	510	453
57	15	838
58	778	928
59	1	896
60	804	492
61	630	294
62	2	966
63	254	539
64	167	28
65	646	879
66	863	49
67	508	759
68	64	165
69	249	525
70	49	605
71	990	375
72	539	272
73	833	561
74	84	571
75	378	847
76	713	485
77	489	204
78	815	905
79	307	774
80	286	204
81	517	61
82	918	74
83	864	397
84	35	597
85	918	632
86	395	570
87	87	97
88	318	94
89	893	805
90	82	392
91	471	899
92	567	895
93	349	360
94	138	560
95	459	962
96	795	461
97	398	467
98	553	606
99	952	89
100	92	22
101	853	188
102	643	80
103	801	227
104	127	74
105	727	975
106	552	48
107	311	959
108	647	876
109	742	168
110	755	589
111	741	8
112	975	954
113	820	502
114	552	300
115	802	744
116	515	599
117	585	600
118	573	793
119	159	669
120	248	369
121	868	476
122	275	194
123	930	933
124	233	587
125	198	35
126	444	648
127	184	822
128	107	840
129	312	573
130	694	813
131	446	264
132	586	483
133	648	274
134	967	362
135	194	330
136	963	135
137	846	717
138	32	487
139	358	728
140	608	182
141	250	367
142	989	392
143	820	307
144	473	274
145	408	84
146	762	800
147	917	560
148	586	830
149	571	616
150	606	445
151	939	116
152	551	528
153	191	102
154	605	583
155	627	249
156	53	819
157	427	571
158	168	479
159	679	371
160	354	415
161	638	444
162	535	918
163	243	535
164	796	796
165	886	32
166	272	699
167	421	935
DEMAND_SECTION
1	0
2	6
3	9
4	7
5	5
6	9
7	5
8	9
9	7
10	10
11	8
12	6
13	5
14	9
15	8
16	9
17	10
18	5
19	7
20	8
21	5
22	9
23	9
24	7
25	5
26	7
27	8
28	5
29	10
30	9
31	9
32	9
33	9
34	7
35	9
36	5
37	10
38	6
39	9
40	9
41	5
42	6
43	10
44	6
45	6
46	8
47	6
48	6
49	10
50	9
51	7
52	8
53	6
54	6
55	6
56	8
57	5
58	10
59	6
60	9
61	9
62	9
63	7
64	9
65	6
66	7
67	5
68	9
69	6
70	5
71	6
72	9
73	6
74	8
75	8
76	5
77	7
78	7
79	7
80	10
81	5
82	10
83	8
84	7
85	9
86	10
87	8
88	9
89	8
90	7
91	10
92	7
93	9
94	6
95	5
96	8
97	8
98	6
99	7
100	10
101	6
102	9
103	5
104	9
105	9
106	5
107	10
108	5
109	6
110	10
111	7
112	10
113	8
114	8
115	5
116	8
117	7
118	6
119	9
120	9
121	7
122	7
123	10
124	9
125	8
126	9
127	8
128	7
129	8
130	7
131	7
132	5
133	7
134	5
135	5
136	9
137	7
138	5
139	5
140	9
141	10
142	10
143	5
144	7
145	5
146	6
147	5
148	7
149	6
150	7
151	7
152	9
153	6
154	10
155	7
156	10
157	7
158	7
159	7
160	5
161	6
162	6
163	9
164	9
165	6
166	10
167	9
CAPACITY_SECTION
1	91
2	91
3	91
4	91
5	91
6	91
7	91
8	91
9	91
10	91
11	91
12	91
13	91
14	91
15	91
16	91
17	91
18	91
19	91
20	91
21	91
22	91
23	91
24	91
25	91
26	91
27	91
28	91
29	91
30	91
31	91
32	91
33	91
34	91
35	91
36	91
37	91
38	91
39	91
40	91
41	91
42	91
43	91
44	91
45	91
46	91
47	91
48	91
49	91
50	91
51	91
52	91
53	91
54	91
55	91
56	91
57	91
58	91
59	91
60	91
61	91
62	91
63	91
64	91
65	91
66	91
67	91
68	91
69	91
70	91
71	91
72	91
73	91
74	91
75	91
76	91
77	91
78	91
79	91
80	91
81	91
82	91
83	91
84	91
85	91
86	91
87	91
88	91
89	91
90	91
91	91
92	91
93	91
94	91
95	91
96	91
97	91
98	91
99	91
100	91
101	91
102	91
103	91
104	91
105	91
106	91
107	91
108	91
109	91
110	91
111	91
112	91
113	91
114	91
115	91
116	91
117	91
118	91
119	91
120	91
121	91
122	91
123	91
124	91
125	91
126	91
127	91
128	91
129	91
130	91
131	91
132	91
133	91
134	91
135	91
136	91
137	91
138	91
139	91
140	91
141	91
142	91
143	91
144	91
145	91
146	91
147	91
148	91
149	91
150	91
151	91
152	91
153	91
154	91
155	91
156	91
157	91
158	91
159	91
160	91
161	91
162	91
163	91
164	91
165	91
166	91
167	109
168	109
169	109
170	109
171	109
172	109
173	109
174	109
175	109
176	109
177	109
178	109
179	109
180	109
181	109
182	109
183	109
184	109
185	109
186	109
187	109
188	109
189	109
190	109
191	109
192	109
193	109
194	109
195	109
196	109
197	109
198	109
199	109
200	109
201	109
202	109
203	109
204	109
205	109
206	109
207	109
208	109
209	109
210	109
211	109
212	109
213	109
214	109
215	109
216	109
217	109
218	109
219	109
220	109
221	109
222	109
223	109
224	109
225	109
226	109
227	109
228	109
229	109
230	109
231	109
232	109
233	109
234	109
235	109
236	109
237	109
238	109
239	109
240	109
241	109
242	109
243	109
244	109
245	109
246	109
247	109
248	109
249	109
250	109
251	109
252	109
253	109
254	109
255	109
256	109
257	109
258	109
259	109
260	109
261	109
262	109
263	109
264	109
265	109
266	109
267	109
268	109
269	109
270	109
271	109
272	109
273	109
274	109
275	109
276	109
277	109
278	109
279	109
280	109
281	109
282	109
283	109
284	109
285	109
286	109
287	109
288	109
289	109
290	109
291	109
292	109
293	109
294	109
295	109
296	109
297	109
298	109
299	109
300	109
301	109
302	109
303	109
304	109
305	109
306	109
307	109
308	109
309	109
310	109
311	109
312	109
313	109
314	109
315	109
316	109
317	109
318	109
319	109
320	109
321	109
322	109
323	109
324	109
325	109
326	109
327	109
328	109
329	109
330	109
331	109
332	109
333	129
334	129
335	129
336	129
337	129
338	129
339	129
340	129
341	129
342	129
343	129
344	129
345	129
346	129
347	129
348	129
349	129
350	129
351	129
352	129
353	129
354	129
355	129
356	129
357	129
358	129
359	129
360	129
361	129
362	129
363	129
364	129
365	129
366	129
367	129
368	129
369	129
370	129
371	129
372	129
373	129
374	129
375	129
376	129
377	129
378	129
379	129
380	129
381	129
382	129
383	129
384	129
385	129
386	129
387	129
388	129
389	129
390	129
391	129
392	129
393	129
394	129
395	129
396	129
397	129
398	129
399	129
400	129
401	129
402	129
403	129
404	129
405	129
406	129
407	129
408	129
409	129
410	129
411	129
412	129
413	129
414	129
415	129
416	129
417	129
418	129
419	129
420	129
421	129
422	129
423	129
424	129
425	129
426	129
427	129
428	129
429	129
430	129
431	129
432	129
433	129
434	129
435	129
436	129
437	129
438	129
439	129
440	129
441	129
442	129
443	129
444	129
445	129
446	129
447	129
448	129
449	129
450	129
451	129
452	129
453	129
454	129
455	129
456	129
457	129
458	129
459	129
460	129
461	129
462	129
463	129
464	129
465	129
466	129
467	129
468	129
469	129
470	129
471	129
472	129
473	129
474	129
475	129
476	129
477	129
478	129
479	129
480	129
481	129
482	129
483	129
484	129
485	129
486	129
487	129
488	129
489	129
490	129
491	129
492	129
493	129
494	129
495	129
496	129
497	129
498	129
499	154
500	154
501	154
502	154
503	154
504	154
505	154
506	154
507	154
508	154
509	154
510	154
511	154
512	154
513	154
514	154
515	154
516	154
517	154
518	154
519	154
520	154
521	154
522	154
523	154
524	154
525	154
526	154
527	154
528	154
529	154
530	154
531	154
532	154
533	154
534	154
535	154
536	154
537	154
538	154
539	154
540	154
541	154
542	154
543	154
544	154
545	154
546	154
547	154
548	154
549	154
550	154
551	154
552	154
553	154
554	154
555	154
556	154
557	154
558	154
559	154
560	154
561	154
562	154
563	154
564	154
565	154
566	154
567	154
568	154
569	154
570	154
571	154
572	154
573	154
574	154
575	154
576	154
577	154
578	154
579	154
580	154
581	154
582	154
583	154
584	154
585	154
586	154
587	154
588	154
589	154
590	154
591	154
592	154
593	154
594	154
595	154
596	154
597	154
598	154
599	154
600	154
601	154
602	154
603	154
604	154
605	154
606	154
607	154
608	154
609	154
610	154
611	154
612	154
613	154
614	154
615	154
616	154
617	154
618	154
619	154
620	154
621	154
622	154
623	154
624	154
625	154
626	154
627	154
628	154
629	154
630	154
631	154
632	154
633	154
634	154
635	154
636	154
637	154
638	154
639	154
640	154
641	154
642	154
643	154
644	154
645	154
646	154
647	154
648	154
649	154
650	154
651	154
652	154
653	154
654	154
655	154
656	154
657	154
658	154
659	154
660	154
661	154
662	154
663	154
664	154
665	183
666	183
667	183
668	183
669	183
670	183
671	183
672	183
673	183
674	183
675	183
676	183
677	183
678	183
679	183
680	183
681	183
682	183
683	183
684	183
685	183
686	183
687	183
688	183
689	183
690	183
691	183
692	183
693	183
694	183
695	183
696	183
697	183
698	183
699	183
700	183
701	183
702	183
703	183
704	183
705	183
706	183
707	183
708	183
709	183
710	183
711	183
712	183
713	183
714	183
715	183
716	183
717	183
718	183
719	183
720	183
721	183
722	183
723	183
724	183
725	183
726	183
727	183
728	183
729	183
730	183
731	183
732	183
733	183
734	183
735	183
736	183
737	183
738	183
739	183
740	183
741	183
742	183
743	183
744	183
745	183
746	183
747	183
748	183
749	183
750	183
751	183
752	183
753	183
754	183
755	183
756	183
757	183
758	183
759	183
760	183
761	183
762	183
763	183
764	183
765	183
766	183
767	183
768	183
769	183
770	183
771	183
772	183
773	183
774	183
775	183
776	183
777	183
778	183
779	183
780	183
781	183
782	183
783	183
784	183
785	183
786	183
787	183
788	183
789	183
790	183
791	183
792	183
793	183
794	183
795	183
796	183
797	183
798	183
799	183
800	183
801	183
802	183
803	183
804	183
805	183
806	183
807	183
808	183
809	183
810	183
811	183
812	183
813	183
814	183
815	183
816	183
817	183
818	183
819	183
820	183
821	183
822	183
823	183
824	183
825	183
826	183
827	183
828	183
829	183
830	183
VEHICLES_FIXED_COST_SECTION
1	91800
2	91800
3	91800
4	91800
5	91800
6	91800
7	91800
8	91800
9	91800
10	91800
11	91800
12	91800
13	91800
14	91800
15	91800
16	91800
17	91800
18	91800
19	91800
20	91800
21	91800
22	91800
23	91800
24	91800
25	91800
26	91800
27	91800
28	91800
29	91800
30	91800
31	91800
32	91800
33	91800
34	91800
35	91800
36	91800
37	91800
38	91800
39	91800
40	91800
41	91800
42	91800
43	91800
44	91800
45	91800
46	91800
47	91800
48	91800
49	91800
50	91800
51	91800
52	91800
53	91800
54	91800
55	91800
56	91800
57	91800
58	91800
59	91800
60	91800
61	91800
62	91800
63	91800
64	91800
65	91800
66	91800
67	91800
68	91800
69	91800
70	91800
71	91800
72	91800
73	91800
74	91800
75	91800
76	91800
77	91800
78	91800
79	91800
80	91800
81	91800
82	91800
83	91800
84	91800
85	91800
86	91800
87	91800
88	91800
89	91800
90	91800
91	91800
92	91800
93	91800
94	91800
95	91800
96	91800
97	91800
98	91800
99	91800
100	91800
101	91800
102	91800
103	91800
104	91800
105	91800
106	91800
107	91800
108	91800
109	91800
110	91800
111	91800
112	91800
113	91800
114	91800
115	91800
116	91800
117	91800
118	91800
119	91800
120	91800
121	91800
122	91800
123	91800
124	91800
125	91800
126	91800
127	91800
128	91800
129	91800
130	91800
131	91800
132	91800
133	91800
134	91800
135	91800
136	91800
137	91800
138	91800
139	91800
140	91800
141	91800
142	91800
143	91800
144	91800
145	91800
146	91800
147	91800
148	91800
149	91800
150	91800
151	91800
152	91800
153	91800
154	91800
155	91800
156	91800
157	91800
158	91800
159	91800
160	91800
161	91800
162	91800
163	91800
164	91800
165	91800
166	91800
167	113600
168	113600
169	113600
170	113600
171	113600
172	113600
173	113600
174	113600
175	113600
176	113600
177	113600
178	113600
179	113600
180	113600
181	113600
182	113600
183	113600
184	113600
185	113600
186	113600
187	113600
188	113600
189	113600
190	113600
191	113600
192	113600
193	113600
194	113600
195	113600
196	113600
197	113600
198	113600
199	113600
200	113600
201	113600
202	113600
203	113600
204	113600
205	113600
206	113600
207	113600
208	113600
209	113600
210	113600
211	113600
212	113600
213	113600
214	113600
215	113600
216	113600
217	113600
218	113600
219	113600
220	113600
221	113600
222	113600
223	113600
224	113600
225	113600
226	113600
227	113600
228	113600
229	113600
230	113600
231	113600
232	113600
233	113600
234	113600
235	113600
236	113600
237	113600
238	113600
239	113600
240	113600
241	113600
242	113600
243	113600
244	113600
245	113600
246	113600
247	113600
248	113600
249	113600
250	113600
251	113600
252	113600
253	113600
254	113600
255	113600
256	113600
257	113600
258	113600
259	113600
260	113600
261	113600
262	113600
263	113600
264	113600
265	113600
266	113600
267	113600
268	113600
269	113600
270	113600
271	113600
272	113600
273	113600
274	113600
275	113600
276	113600
277	113600
278	113600
279	113600
280	113600
281	113600
282	113600
283	113600
284	113600
285	113600
286	113600
287	113600
288	113600
289	113600
290	113600
291	113600
292	113600
293	113600
294	113600
295	113600
296	113600
297	113600
298	113600
299	113600
300	113600
301	113600
302	113600
303	113600
304	113600
305	113600
306	113600
307	113600
308	113600
309	113600
310	113600
311	113600
312	113600
313	113600
314	113600
315	113600
316	113600
317	113600
318	113600
319	113600
320	113600
321	113600
322	113600
323	113600
324	113600
325	113600
326	113600
327	113600
328	113600
329	113600
330	113600
331	113600
332	113600
333	140600
334	140600
335	140600
336	140600
337	140600
338	140600
339	140600
340	140600
341	140600
342	140600
343	140600
344	140600
345	140600
346	140600
347	140600
348	140600
349	140600
350	140600
351	140600
352	140600
353	140600
354	140600
355	140600
356	140600
357	140600
358	140600
359	140600
360	140600
361	140600
362	140600
363	140600
364	140600
365	140600
366	140600
367	140600
368	140600
369	140600
370	140600
371	140600
372	140600
373	140600
374	140600
375	140600
376	140600
377	140600
378	140600
379	140600
380	140600
381	140600
382	140600
383	140600
384	140600
385	140600
386	140600
387	140600
388	140600
389	140600
390	140600
391	140600
392	140600
393	140600
394	140600
395	140600
396	140600
397	140600
398	140600
399	140600
400	140600
401	140600
402	140600
403	140600
404	140600
405	140600
406	140600
407	140600
408	140600
409	140600
410	140600
411	140600
412	140600
413	140600
414	140600
415	140600
416	140600
417	140600
418	140600
419	140600
420	140600
421	140600
422	140600
423	140600
424	140600
425	140600
426	140600
427	140600
428	140600
429	140600
430	140600
431	140600
432	140600
433	140600
434	140600
435	140600
436	140600
437	140600
438	140600
439	140600
440	140600
441	140600
442	140600
443	140600
444	140600
445	140600
446	140600
447	140600
448	140600
449	140600
450	140600
451	140600
452	140600
453	140600
454	140600
455	140600
456	140600
457	140600
458	140600
459	140600
460	140600
461	140600
462	140600
463	140600
464	140600
465	140600
466	140600
467	140600
468	140600
469	140600
470	140600
471	140600
472	140600
473	140600
474	140600
475	140600
476	140600
477	140600
478	140600
479	140600
480	140600
481	140600
482	140600
483	140600
484	140600
485	140600
486	140600
487	140600
488	140600
489	140600
490	140600
491	140600
492	140600
493	140600
494	140600
495	140600
496	140600
497	140600
498	140600
499	173700
500	173700
501	173700
502	173700
503	173700
504	173700
505	173700
506	173700
507	173700
508	173700
509	173700
510	173700
511	173700
512	173700
513	173700
514	173700
515	173700
516	173700
517	173700
518	173700
519	173700
520	173700
521	173700
522	173700
523	173700
524	173700
525	173700
526	173700
527	173700
528	173700
529	173700
530	173700
531	173700
532	173700
533	173700
534	173700
535	173700
536	173700
537	173700
538	173700
539	173700
540	173700
541	173700
542	173700
543	173700
544	173700
545	173700
546	173700
547	173700
548	173700
549	173700
550	173700
551	173700
552	173700
553	173700
554	173700
555	173700
556	173700
557	173700
558	173700
559	173700
560	173700
561	173700
562	173700
563	173700
564	173700
565	173700
566	173700
567	173700
568	173700
569	173700
570	173700
571	173700
572	173700
573	173700
574	173700
575	173700
576	173700
577	173700
578	173700
579	173700
580	173700
581	173700
582	173700
583	173700
584	173700
585	173700
586	173700
587	173700
588	173700
589	173700
590	173700
591	173700
592	173700
593	173700
594	173700
595	173700
596	173700
597	173700
598	173700
599	173700
600	173700
601	173700
602	173700
603	173700
604	173700
605	173700
606	173700
607	173700
608	173700
609	173700
610	173700
611	173700
612	173700
613	173700
614	173700
615	173700
616	173700
617	173700
618	173700
619	173700
620	173700
621	173700
622	173700
623	173700
624	173700
625	173700
626	173700
627	173700
628	173700
629	173700
630	173700
631	173700
632	173700
633	173700
634	173700
635	173700
636	173700
637	173700
638	173700
639	173700
640	173700
641	173700
642	173700
643	173700
644	173700
645	173700
646	173700
647	173700
648	173700
649	173700
650	173700
651	173700
652	173700
653	173700
654	173700
655	173700
656	173700
657	173700
658	173700
659	173700
660	173700
661	173700
662	173700
663	173700
664	173700
665	214000
666	214000
667	214000
668	214000
669	214000
670	214000
671	214000
672	214000
673	214000
674	214000
675	214000
676	214000
677	214000
678	214000
679	214000
680	214000
681	214000
682	214000
683	214000
684	214000
685	214000
686	214000
687	214000
688	214000
689	214000
690	214000
691	214000
692	214000
693	214000
694	214000
695	214000
696	214000
697	214000
698	214000
699	214000
700	214000
701	214000
702	214000
703	214000
704	214000
705	214000
706	214000
707	214000
708	214000
709	214000
710	214000
711	214000
712	214000
713	214000
714	214000
715	214000
716	214000
717	214000
718	214000
719	214000
720	214000
721	214000
722	214000
723	214000
724	214000
725	214000
726	214000
727	214000
728	214000
729	214000
730	214000
731	214000
732	214000
733	214000
734	214000
735	214000
736	214000
737	214000
738	214000
739	214000
740	214000
741	214000
742	214000
743	214000
744	214000
745	214000
746	214000
747	214000
748	214000
749	214000
750	214000
751	214000
752	214000
753	214000
754	214000
755	214000
756	214000
757	214000
758	214000
759	214000
760	214000
761	214000
762	214000
763	214000
764	214000
765	214000
766	214000
767	214000
768	214000
769	214000
770	214000
771	214000
772	214000
773	214000
774	214000
775	214000
776	214000
777	214000
778	214000
779	214000
780	214000
781	214000
782	214000
783	214000
784	214000
785	214000
786	214000
787	214000
788	214000
789	214000
790	214000
791	214000
792	214000
793	214000
794	214000
795	214000
796	214000
797	214000
798	214000
799	214000
800	214000
801	214000
802	214000
803	214000
804	214000
805	214000
806	214000
807	214000
808	214000
809	214000
810	214000
811	214000
812	214000
813	214000
814	214000
815	214000
816	214000
817	214000
818	214000
819	214000
820	214000
821	214000
822	214000
823	214000
824	214000
825	214000
826	214000
827	214000
828	214000
829	214000
830	214000
VEHICLES_UNIT_DISTANCE_COST_SECTION
1	100
2	100
3	100
4	100
5	100
6	100
7	100
8	100
9	100
10	100
11	100
12	100
13	100
14	100
15	100
16	100
17	100
18	100
19	100
20	100
21	100
22	100
23	100
24	100
25	100
26	100
27	100
28	100
29	100
30	100
31	100
32	100
33	100
34	100
35	100
36	100
37	100
38	100
39	100
40	100
41	100
42	100
43	100
44	100
45	100
46	100
47	100
48	100
49	100
50	100
51	100
52	100
53	100
54	100
55	100
56	100
57	100
58	100
59	100
60	100
61	100
62	100
63	100
64	100
65	100
66	100
67	100
68	100
69	100
70	100
71	100
72	100
73	100
74	100
75	100
76	100
77	100
78	100
79	100
80	100
81	100
82	100
83	100
84	100
85	100
86	100
87	100
88	100
89	100
90	100
91	100
92	100
93	100
94	100
95	100
96	100
97	100
98	100
99	100
100	100
101	100
102	100
103	100
104	100
105	100
106	100
107	100
108	100
109	100
110	100
111	100
112	100
113	100
114	100
115	100
116	100
117	100
118	100
119	100
120	100
121	100
122	100
123	100
124	100
125	100
126	100
127	100
128	100
129	100
130	100
131	100
132	100
133	100
134	100
135	100
136	100
137	100
138	100
139	100
140	100
141	100
142	100
143	100
144	100
145	100
146	100
147	100
148	100
149	100
150	100
151	100
152	100
153	100
154	100
155	100
156	100
157	100
158	100
159	100
160	100
161	100
162	100
163	100
164	100
165	100
166	100
167	100
168	100
169	100
170	100
171	100
172	100
173	100
174	100
175	100
176	100
177	100
178	100
179	100
180	100
181	100
182	100
183	100
184	100
185	100
186	100
187	100
188	100
189	100
190	100
191	100
192	100
193	100
194	100
195	100
196	100
197	100
198	100
199	100
200	100
201	100
202	100
203	100
204	100
205	100
206	100
207	100
208	100
209	100
210	100
211	100
212	100
213	100
214	100
215	100
216	100
217	100
218	100
219	100
220	100
221	100
222	100
223	100
224	100
225	100
226	100
227	100
228	100
229	100
230	100
231	100
232	100
233	100
234	100
235	100
236	100
237	100
238	100
239	100
240	100
241	100
242	100
243	100
244	100
245	100
246	100
247	100
248	100
249	100
250	100
251	100
252	100
253	100
254	100
255	100
256	100
257	100
258	100
259	100
260	100
261	100
262	100
263	100
264	100
265	100
266	100
267	100
268	100
269	100
270	100
271	100
272	100
273	100
274	100
275	100
276	100
277	100
278	100
279	100
280	100
281	100
282	100
283	100
284	100
285	100
286	100
287	100
288	100
289	100
290	100
291	100
292	100
293	100
294	100
295	100
296	100
297	100
298	100
299	100
300	100
301	100
302	100
303	100
304	100
305	100
306	100
307	100
308	100
309	100
310	100
311	100
312	100
313	100
314	100
315	100
316	100
317	100
318	100
319	100
320	100
321	100
322	100
323	100
324	100
325	100
326	100
327	100
328	100
329	100
330	100
331	100
332	100
333	100
334	100
335	100
336	100
337	100
338	100
339	100
340	100
341	100
342	100
343	100
344	100
345	100
346	100
347	100
348	100
349	100
350	100
351	100
352	100
353	100
354	100
355	100
356	100
357	100
358	100
359	100
360	100
361	100
362	100
363	100
364	100
365	100
366	100
367	100
368	100
369	100
370	100
371	100
372	100
373	100
374	100
375	100
376	100
377	100
378	100
379	100
380	100
381	100
382	100
383	100
384	100
385	100
386	100
387	100
388	100
389	100
390	100
391	100
392	100
393	100
394	100
395	100
396	100
397	100
398	100
399	100
400	100
401	100
402	100
403	100
404	100
405	100
406	100
407	100
408	100
409	100
410	100
411	100
412	100
413	100
414	100
415	100
416	100
417	100
418	100
419	100
420	100
421	100
422	100
423	100
424	100
425	100
426	100
427	100
428	100
429	100
430	100
431	100
432	100
433	100
434	100
435	100
436	100
437	100
438	100
439	100
440	100
441	100
442	100
443	100
444	100
445	100
446	100
447	100
448	100
449	100
450	100
451	100
452	100
453	100
454	100
455	100
456	100
457	100
458	100
459	100
460	100
461	100
462	100
463	100
464	100
465	100
466	100
467	100
468	100
469	100
470	100
471	100
472	100
473	100
474	100
475	100
476	100
477	100
478	100
479	100
480	100
481	100
482	100
483	100
484	100
485	100
486	100
487	100
488	100
489	100
490	100
491	100
492	100
493	100
494	100
495	100
496	100
497	100
498	100
499	100
500	100
501	100
502	100
503	100
504	100
505	100
506	100
507	100
508	100
509	100
510	100
511	100
512	100
513	100
514	100
515	100
516	100
517	100
518	100
519	100
520	100
521	100
522	100
523	100
524	100
525	100
526	100
527	100
528	100
529	100
530	100
531	100
532	100
533	100
534	100
535	100
536	100
537	100
538	100
539	100
540	100
541	100
542	100
543	100
544	100
545	100
546	100
547	100
548	100
549	100
550	100
551	100
552	100
553	100
554	100
555	100
556	100
557	100
558	100
559	100
560	100
561	100
562	100
563	100
564	100
565	100
566	100
567	100
568	100
569	100
570	100
571	100
572	100
573	100
574	100
575	100
576	100
577	100
578	100
579	100
580	100
581	100
582	100
583	100
584	100
585	100
586	100
587	100
588	100
589	100
590	100
591	100
592	100
593	100
594	100
595	100
596	100
597	100
598	100
599	100
600	100
601	100
602	100
603	100
604	100
605	100
606	100
607	100
608	100
609	100
610	100
611	100
612	100
613	100
614	100
615	100
616	100
617	100
618	100
619	100
620	100
621	100
622	100
623	100
624	100
625	100
626	100
627	100
628	100
629	100
630	100
631	100
632	100
633	100
634	100
635	100
636	100
637	100
638	100
639	100
640	100
641	100
642	100
643	100
644	100
645	100
646	100
647	100
648	100
649	100
650	100
651	100
652	100
653	100
654	100
655	100
656	100
657	100
658	100
659	100
660	100
661	100
662	100
663	100
664	100
665	100
666	100
667	100
668	100
669	100
670	100
671	100
672	100
673	100
674	100
675	100
676	100
677	100
678	100
679	100
680	100
681	100
682	100
683	100
684	100
685	100
686	100
687	100
688	100
689	100
690	100
691	100
692	100
693	100
694	100
695	100
696	100
697	100
698	100
699	100
700	100
701	100
702	100
703	100
704	100
705	100
706	100
707	100
708	100
709	100
710	100
711	100
712	100
713	100
714	100
715	100
716	100
717	100
718	100
719	100
720	100
721	100
722	100
723	100
724	100
725	100
726	100
727	100
728	100
729	100
730	100
731	100
732	100
733	100
734	100
735	100
736	100
737	100
738	100
739	100
740	100
741	100
742	100
743	100
744	100
745	100
746	100
747	100
748	100
749	100
750	100
751	100
752	100
753	100
754	100
755	100
756	100
757	100
758	100
759	100
760	100
761	100
762	100
763	100
764	100
765	100
766	100
767	100
768	100
769	100
770	100
771	100
772	100
773	100
774	100
775	100
776	100
777	100
778	100
779	100
780	100
781	100
782	100
783	100
784	100
785	100
786	100
787	100
788	100
789	100
790	100
791	100
792	100
793	100
794	100
795	100
796	100
797	100
798	100
799	100
800	100
801	100
802	100
803	100
804	100
805	100
806	100
807	100
808	100
809	100
810	100
811	100
812	100
813	100
814	100
815	100
816	100
817	100
818	100
819	100
820	100
821	100
822	100
823	100
824	100
825	100
826	100
827	100
828	100
829	100
830	100
DEPOT_SECTION
1
EOF
